c 
c G(n,p) graph
c graph gen seed     : 3611
c number of vertices : 25
c max number of edges: 500
c edge probability   : 0.600000
c data structure     : dense
c
c           Graph Stats
c number of vertices  : 25
c nonisolated vertices: 25
c number of edges     : 184
c edge density        : 0.613333
c max degree          : 18
c avg degree          : 14.72
c min degree          : 10
p col 25 184
e 1 2
e 1 4
e 1 5
e 1 6
e 1 9
e 1 12
e 1 13
e 1 15
e 1 16
e 1 17
e 1 19
e 1 22
e 1 23
e 1 25
e 2 3
e 2 5
e 2 6
e 2 7
e 2 9
e 2 10
e 2 17
e 2 18
e 2 19
e 2 20
e 2 21
e 2 22
e 2 23
e 2 25
e 3 4
e 3 7
e 3 8
e 3 11
e 3 12
e 3 13
e 3 14
e 3 15
e 3 16
e 3 18
e 3 19
e 3 22
e 3 25
e 4 5
e 4 6
e 4 7
e 4 8
e 4 9
e 4 10
e 4 11
e 4 12
e 4 13
e 4 14
e 4 15
e 4 17
e 4 18
e 4 19
e 4 23
e 5 6
e 5 7
e 5 8
e 5 10
e 5 11
e 5 14
e 5 15
e 5 16
e 5 18
e 5 20
e 5 21
e 5 23
e 5 24
e 5 25
e 6 8
e 6 9
e 6 11
e 6 14
e 6 15
e 6 19
e 6 20
e 6 21
e 6 22
e 6 23
e 6 25
e 7 8
e 7 9
e 7 10
e 7 11
e 7 16
e 7 17
e 7 19
e 7 20
e 7 24
e 7 25
e 8 10
e 8 15
e 8 17
e 8 19
e 8 21
e 8 23
e 8 24
e 8 25
e 9 10
e 9 13
e 9 14
e 9 15
e 9 16
e 9 17
e 9 18
e 9 19
e 9 20
e 9 21
e 9 22
e 9 23
e 9 25
e 10 11
e 10 12
e 10 14
e 10 15
e 10 16
e 10 17
e 10 18
e 10 20
e 10 21
e 10 22
e 10 24
e 11 12
e 11 13
e 11 14
e 11 15
e 11 16
e 11 17
e 11 18
e 11 19
e 11 21
e 11 22
e 11 24
e 11 25
e 12 13
e 12 14
e 12 16
e 12 17
e 12 19
e 12 22
e 12 23
e 13 14
e 13 15
e 13 16
e 13 17
e 13 18
e 13 19
e 13 20
e 13 21
e 13 22
e 13 23
e 13 25
e 14 15
e 14 17
e 14 18
e 14 19
e 14 21
e 14 23
e 14 25
e 15 16
e 15 24
e 16 17
e 16 18
e 16 22
e 16 23
e 16 25
e 17 19
e 17 20
e 17 21
e 17 23
e 17 25
e 18 20
e 18 22
e 18 24
e 19 21
e 19 25
e 20 24
e 21 22
e 21 23
e 21 24
e 21 25
e 23 24
e 24 25
